<instance format="XCSP3" type="CSP">
  <variables>
    <var id="x0"> 5 12 16 </var>
    <var id="x1"> 4 5 9 13 16 </var>
    <var id="x2"> 5 11 12 </var>
    <var id="x3"> 4 5 9 15 16 </var>
    <var id="x4"> 4 5 9 11 13 15 </var>
    <var id="x5"> 9 15 16 </var>
    <var id="x6"> 4 5 11 12 16 </var>
    <var id="x7"> 4 5 13 16 </var>
    <var id="x8"> 3 5 12 15 </var>
    <var id="x9"> 2 3 5 7 15 </var>
    <var id="x10"> 2 5 8 12 </var>
    <var id="x11"> 3 5 7 8 10 12 </var>
    <var id="x12"> 5 10 15 </var>
    <var id="x13"> 7 </var>
    <var id="x14"> 5 7 12 </var>
    <var id="x15"> 2 3 5 10 15 </var>
    <var id="x16"> 5 6 8 </var>
    <var id="x17"> 5 6 8 9 12 </var>
    <var id="x18"> 3..6 15 </var>
    <var id="x19"> 5 8 12 </var>
    <var id="x20"> 3 5 8 12 </var>
    <var id="x21"> 4 6 9 </var>
    <var id="x22"> 5 6 9 12 </var>
    <var id="x23"> 4..6 </var>
    <var id="x24"> 5 6 8 14 </var>
    <var id="x25"> 2 5 6 8 14 16 </var>
    <var id="x26"> 5 8 10 11 </var>
    <var id="x27"> 2 5 6 </var>
    <var id="x28"> 5 8 10 11 </var>
    <var id="x29"> 2 5 11 14 16 </var>
    <var id="x30"> 5 6 16 </var>
    <var id="x31"> 2 5 10 11 14 </var>
    <var id="x32"> 0 5 7 17 </var>
    <var id="x33"> 5 16 </var>
    <var id="x34"> 3 5 7 11 17 </var>
    <var id="x35"> 5 7 11 </var>
    <var id="x36"> 3 5 13 16 </var>
    <var id="x37"> 0 3 5 7 11 </var>
    <var id="x38"> 5 11 13 </var>
    <var id="x39"> 0 3 5 11 13 </var>
    <var id="x40"> 1 5 15 16 </var>
    <var id="x41"> 3 5 7 15 </var>
    <var id="x42"> 3..5 16 </var>
    <var id="x43"> 0 3 5 7 </var>
    <var id="x44"> 0 1 4 5 15 16 </var>
    <var id="x45"> 1 4 5 15 </var>
    <var id="x46"> 0 1 3 15 16 </var>
    <var id="x47"> 0 4 5 7 16 </var>
    <var id="x48"> 0 5 6 14 </var>
    <var id="x49"> 4 5 9 12 </var>
    <var id="x50"> 5 11 </var>
    <var id="x51"> 5 6 9 11 12 </var>
    <var id="x52"> 0 4..6 </var>
    <var id="x53"> 0 9 </var>
    <var id="x54"> 5 6 9 12 </var>
    <var id="x55"> 0 4..6 </var>
    <var id="x56"> 1 2 5 6 16 </var>
    <var id="x57"> 1 5..7 </var>
    <var id="x58"> 5 6 16 </var>
    <var id="x59"> 1 2 5 </var>
    <var id="x60"> 1 6 7 16 </var>
    <var id="x61"> 0 5 </var>
    <var id="x62"> 2 5 </var>
    <var id="x63"> 1 5 </var>
    <var id="x64"> 2 5 14 16 </var>
    <var id="x65"> 1 16 </var>
    <var id="x66"> 1 6 7 13 16 </var>
    <var id="x67"> 2 5 14 16 </var>
    <var id="x68"> 1 5..7 13 16 </var>
    <var id="x69"> 2 5 13 14 </var>
    <var id="x70"> 5..7 13 16 </var>
    <var id="x71"> 1 3..5 15 </var>
    <var id="x72"> 3..5 7 15 </var>
    <var id="x73"> 1 4 5 15 </var>
    <var id="x74"> 1 3 8 15 </var>
    <var id="x75"> 3..5 8 </var>
    <var id="x76"> 1 5 7 </var>
    <var id="x77"> 3 5 15 </var>
    <var id="x78"> 5 8 15 </var>
    <var id="x79"> 5 6 8 </var>
    <var id="x80"> 2 5 8 16 </var>
    <var id="x81"> 5 8 </var>
    <var id="x82"> 4 6 13 16 </var>
    <var id="x83"> 2 4 5 16 </var>
    <var id="x84"> 2 5 13 15 </var>
    <var id="x85"> 4..6 13 16 </var>
    <var id="x86"> 5 7 8 14 </var>
    <var id="x87"> 5 12 </var>
    <var id="x88"> 5 7 8 10 11 </var>
    <var id="x89"> 5 7 8 11 12 </var>
    <var id="x90"> 5 10 </var>
    <var id="x91"> 5 8 11 13 14 </var>
    <var id="x92"> 5 11 12 14 </var>
    <var id="x93"> 5 7 12 13 </var>
    <var id="x94"> 0 5 6 8 17 </var>
    <var id="x95"> 5 8 17 </var>
    <var id="x96"> 0 4..6 </var>
    <var id="x97"> 1 4 5 9 </var>
    <var id="x98"> 0 1 8 9 </var>
    <var id="x99"> 1 4 6 9 </var>
    <var id="x100"> 0 4 5 8 </var>
    <var id="x101"> 0 4 5 </var>
    <var id="x102"> 0 5 8 14 </var>
    <var id="x103"> 5 8 14 </var>
    <var id="x104"> 3..5 </var>
    <var id="x105"> 0 5 8 14 </var>
    <var id="x106"> 3..5 13 </var>
    <var id="x107"> 4 5 11 13 </var>
    <var id="x108"> 0 3..5 8 11 13 14 </var>
    <var id="x109"> 0 4 5 13 </var>
    <var id="x110"> 1 6 9 </var>
    <var id="x111"> 0 6 15 </var>
    <var id="x112"> 0 17 </var>
    <var id="x113"> 6 9 10 13 </var>
    <var id="x114"> 0 1 9 10 15 </var>
    <var id="x115"> 1 6 9 13 </var>
    <var id="x116"> 0 13 </var>
    <var id="x117"> 0 6 10 13 </var>
    <var id="x118"> 1 5 16 </var>
    <var id="x119"> 1 3 5 9 </var>
    <var id="x120"> 3 5 10 </var>
    <var id="x121"> 1 5 9 </var>
    <var id="x122"> 3 5 9 10 16 </var>
    <var id="x123"> 0 1 5 9 10 16 </var>
    <var id="x124"> 0 5 16 </var>
    <var id="x125"> 1 14 </var>
    <var id="x126"> 4 7 </var>
    <var id="x127"> 7 10..12 </var>
    <var id="x128"> 1 4 9 11 </var>
    <var id="x129"> 1 9 </var>
    <var id="x130"> 4 11 12 14 </var>
    <var id="x131"> 1 7 9 12 </var>
    <var id="x132"> 10 11 14 </var>
    <var id="x133"> 2 5 15 16 </var>
    <var id="x134"> 0 2 5 16 </var>
    <var id="x135"> 3 5 9 16 </var>
    <var id="x136"> 0 5 9 15 16 </var>
    <var id="x137"> 2 5 9 11 15 </var>
    <var id="x138"> 9 11 16 </var>
    <var id="x139"> 0 3 5 11 </var>
    <var id="x140"> 2 3 5 11 15 </var>
  </variables>
  <constraints>
    <group>
      <allDifferent> %... </allDifferent>
      <args> x0 x1 x2 x3 x4 x5 x6 x7 </args>
      <args> x8 x9 x10 x11 x12 x13 x14 x15 </args>
      <args> x16 x17 x18 x19 x20 x21 x22 x23 </args>
      <args> x24 x25 x26 x27 x28 x29 x30 x31 </args>
      <args> x32 x33 x34 x35 x36 x37 x38 x39 </args>
      <args> x40 x41 x42 x43 x44 x45 x46 x47 </args>
      <args> x48 x49 x50 x51 x52 x53 x54 x55 </args>
      <args> x56 x57 x58 x59 x60 x61 x62 </args>
      <args> x63 x64 x65 x66 x67 x68 x69 x70 </args>
      <args> x71 x72 x73 x74 x75 x76 x77 </args>
      <args> x78 x79 x80 x81 x82 x83 x84 x85 </args>
      <args> x86 x87 x88 x89 x90 x91 x92 x93 </args>
      <args> x94 x95 x96 x97 x98 x99 x100 x101 </args>
      <args> x102 x103 x104 x105 x106 x107 x108 x109 </args>
      <args> x110 x111 x112 x113 x114 x115 x116 x117 </args>
      <args> x118 x119 x120 x121 x122 x123 x124 </args>
      <args> x125 x126 x127 x128 x129 x130 x131 x132 </args>
      <args> x133 x134 x135 x136 x137 x138 x139 x140 </args>
      <args> x16 x24 x32 x48 x86 x94 x102 </args>
      <args> x25 x33 x40 x56 x103 x118 x125 x133 </args>
      <args> x8 x49 x63 x71 x87 x104 x119 </args>
      <args> x26 x34 x41 x50 x78 x88 x95 x120 </args>
      <args> x17 x35 x51 x57 x79 x89 x110 x121 </args>
      <args> x9 x18 x27 x52 x72 x96 x111 x126 </args>
      <args> x0 x10 x19 x64 x80 x105 x112 x134 </args>
      <args> x1 x36 x42 x58 x106 x113 x122 x135 </args>
      <args> x2 x11 x20 x28 x37 x43 x81 x127 </args>
      <args> x3 x12 x44 x73 x90 x114 x123 x136 </args>
      <args> x4 x38 x45 x59 x97 x107 x128 x137 </args>
      <args> x5 x46 x53 x65 x74 x98 x129 </args>
      <args> x13 x21 x60 x66 x82 x99 x115 x138 </args>
      <args> x39 x61 x75 x91 x100 x108 x116 x139 </args>
      <args> x6 x29 x67 x83 x92 x101 x124 x130 </args>
      <args> x14 x22 x30 x54 x68 x76 x93 x131 </args>
      <args> x15 x31 x62 x69 x77 x84 x132 x140 </args>
      <args> x7 x23 x47 x55 x70 x85 x109 x117 </args>
    </group>
  </constraints>
</instance>

